instances/knapsack/discrete_knapsack_uncertainty/knapsack_110_2.lp
\ Model knapsack_110_2
\ LP format - for model browsing. Use MPS format to capture full model detail.
\ Signature: 0x1c7a262dccd0e095
Minimize
  - 31 x[0] - 36 x[1] - 77 x[2] - 29 x[3] - 35 x[4] - 54 x[5] - 7 x[6]
   - 93 x[7] - 84 x[8] - 4 x[9] - 80 x[10] - 68 x[11] - 80 x[12] - 51 x[13]
   - 60 x[14] - 9 x[15] - 99 x[16] - 11 x[17] - 92 x[18] - 83 x[19]
   - 47 x[20] - 4 x[21] - 93 x[22] - 81 x[23] - 86 x[24] - 28 x[25]
   - 49 x[26] - 65 x[27] - 87 x[28] - 50 x[29] - 14 x[30] - 37 x[31]
   - 97 x[32] - 40 x[33] - 25 x[34] - 90 x[35] - 6 x[36] - 64 x[37]
   - 88 x[38] - 49 x[39] - 57 x[40] - 3 x[41] - 63 x[42] - 32 x[43]
   - 4 x[44] - 24 x[45] - 50 x[46] - 86 x[47] - 26 x[48] - 43 x[49]
   - 36 x[50] - 52 x[51] - 8 x[52] - 78 x[53] - 81 x[54] - 67 x[55]
   - 100 x[56] - 17 x[57] - 53 x[58] - 88 x[59] - 85 x[60] - 31 x[61]
   - 19 x[62] - 91 x[63] - 28 x[64] - 2 x[65] - 2 x[66] - 75 x[67]
   - 30 x[68] - 87 x[69] - 2 x[70] - 4 x[71] - 2 x[72] - 83 x[73]
   - 88 x[74] - 67 x[75] - 35 x[76] - 14 x[77] - 57 x[78] - 49 x[79]
   - 100 x[80] - 11 x[81] - 7 x[82] - 15 x[83] - 10 x[84] - 54 x[85]
   - 71 x[86] - 32 x[87] - 21 x[88] - 88 x[89] - 91 x[90] - 83 x[91]
   - 3 x[92] - 46 x[93] - 53 x[94] - 28 x[95] - 34 x[96] - 73 x[97]
   - 30 x[98] - 30 x[99] - 98 x[100] - 7 x[101] - 16 x[102] - 67 x[103]
   - 88 x[104] - 76 x[105] - 67 x[106] - 86 x[107] - 15 x[108] - 30 x[109]
Subject To
 primal_upper: 25 x[0] + 9 x[1] + 99 x[2] + 4 x[3] + 41 x[4] + 99 x[5]
   + 6 x[6] + 49 x[7] + 62 x[8] + 75 x[9] + 9 x[10] + 32 x[11] + 97 x[12]
   + 5 x[13] + 82 x[14] + 46 x[15] + 18 x[16] + 73 x[17] + 90 x[18]
   + 11 x[19] + 10 x[20] + 45 x[21] + 77 x[22] + 36 x[23] + 42 x[24]
   + 97 x[25] + 55 x[26] + 69 x[27] + 95 x[28] + 72 x[29] + 15 x[30]
   + 81 x[31] + x[32] + 86 x[33] + 65 x[34] + 38 x[35] + x[36] + 86 x[37]
   + 93 x[38] + 88 x[39] + 100 x[40] + 27 x[41] + 67 x[42] + 47 x[43]
   + 28 x[44] + 44 x[45] + 47 x[46] + 83 x[47] + 4 x[48] + 73 x[49]
   + 52 x[50] + 49 x[51] + 46 x[52] + 89 x[53] + 90 x[54] + 25 x[55]
   + 10 x[56] + 4 x[57] + 29 x[58] + 91 x[59] + 34 x[60] + 88 x[61]
   + 97 x[62] + 60 x[63] + 45 x[64] + 85 x[65] + 66 x[66] + 32 x[67]
   + 53 x[68] + 79 x[69] + 63 x[70] + 31 x[71] + 11 x[72] + 32 x[73]
   + 89 x[74] + 18 x[75] + 40 x[76] + 48 x[77] + 98 x[78] + 56 x[79]
   + 19 x[80] + 75 x[81] + 56 x[82] + 71 x[83] + 75 x[84] + 75 x[85]
   + x[86] + 33 x[87] + 67 x[88] + 24 x[89] + 38 x[90] + 18 x[91]
   + 18 x[92] + 49 x[93] + 21 x[94] + 46 x[95] + 66 x[96] + 34 x[97]
   + 89 x[98] + 37 x[99] + 30 x[100] + 29 x[101] + 91 x[102] + 49 x[103]
   + 70 x[104] + 3 x[105] + 52 x[106] + 60 x[107] + 20 x[108] + 74 x[109]
   + 2.5 r[0] + 0.9 r[1] + 9.9 r[2] + 0.4 r[3] + 4.1 r[4] + 9.9 r[5]
   + 0.6 r[6] + 4.9 r[7] + 6.2 r[8] + 7.5 r[9] + 0.9 r[10] + 3.2 r[11]
   + 9.7 r[12] + 0.5 r[13] + 8.2 r[14] + 4.6 r[15] + 1.8 r[16] + 7.3 r[17]
   + 9 r[18] + 1.1 r[19] + r[20] + 4.5 r[21] + 7.7 r[22] + 3.6 r[23]
   + 4.2 r[24] + 9.7 r[25] + 5.5 r[26] + 6.9 r[27] + 9.5 r[28] + 7.2 r[29]
   + 1.5 r[30] + 8.1 r[31] + 0.1 r[32] + 8.6 r[33] + 6.5 r[34] + 3.8 r[35]
   + 0.1 r[36] + 8.6 r[37] + 9.3 r[38] + 8.8 r[39] + 10 r[40] + 2.7 r[41]
   + 6.7 r[42] + 4.7 r[43] + 2.8 r[44] + 4.4 r[45] + 4.7 r[46] + 8.3 r[47]
   + 0.4 r[48] + 7.3 r[49] + 5.2 r[50] + 4.9 r[51] + 4.6 r[52] + 8.9 r[53]
   + 9 r[54] + 2.5 r[55] + r[56] + 0.4 r[57] + 2.9 r[58] + 9.1 r[59]
   + 3.4 r[60] + 8.8 r[61] + 9.7 r[62] + 6 r[63] + 4.5 r[64] + 8.5 r[65]
   + 6.6 r[66] + 3.2 r[67] + 5.3 r[68] + 7.9 r[69] + 6.3 r[70] + 3.1 r[71]
   + 1.1 r[72] + 3.2 r[73] + 8.9 r[74] + 1.8 r[75] + 4 r[76] + 4.8 r[77]
   + 9.8 r[78] + 5.6 r[79] + 1.9 r[80] + 7.5 r[81] + 5.6 r[82] + 7.1 r[83]
   + 7.5 r[84] + 7.5 r[85] + 0.1 r[86] + 3.3 r[87] + 6.7 r[88] + 2.4 r[89]
   + 3.8 r[90] + 1.8 r[91] + 1.8 r[92] + 4.9 r[93] + 2.1 r[94] + 4.6 r[95]
   + 6.6 r[96] + 3.4 r[97] + 8.9 r[98] + 3.7 r[99] + 3 r[100] + 2.9 r[101]
   + 9.1 r[102] + 4.9 r[103] + 7 r[104] + 0.3 r[105] + 5.2 r[106]
   + 6 r[107] + 2 r[108] + 7.4 r[109] <= 533
 primal_lower: 1.693321365980238 x[0] + 1.210521056236881 x[1]
   + 3.893836388261791 x[2] + 3.621441797027456 x[3]
   + 2.612174549744017 x[4] + 1.38628070320829 x[5]
   + 0.5481642717704143 x[6] + 3.282851481241203 x[7]
   + 2.652871461627533 x[8] + 0.3311876669353755 x[9]
   + 2.925075580089054 x[10] + 1.873270249248277 x[11]
   + 0.6151191179083952 x[12] + 3.720516405434199 x[13]
   + 3.213133961550475 x[14] + 3.276351991160753 x[15]
   + 3.262677563734956 x[16] + 2.03641325895212 x[17]
   + 0.577156302003325 x[18] + 4.581331492331063 x[19]
   + 4.492535046120619 x[20] + 1.065313262084203 x[21]
   + 0.3674675050879555 x[22] + 3.800153044615941 x[23]
   + 0.829843237489417 x[24] + 4.845794274772615 x[25]
   + 3.011947846187312 x[26] + 3.576624207763424 x[27]
   + 0.8198765471426908 x[28] + 2.748513961288262 x[29]
   + 1.226451285789115 x[30] + 2.552762520458283 x[31]
   + 2.416918710371299 x[32] + 3.475333720913341 x[33]
   + 2.976413960152358 x[34] + 0.8359200846659969 x[35]
   + 4.839245319026277 x[36] + 0.0120917229416225 x[37]
   + 3.088504894038834 x[38] + 1.147610238164147 x[39]
   + 2.062343225255907 x[40] + 4.631910351750376 x[41]
   + 1.28743229952444 x[42] + 0.5507905131643612 x[43]
   + 2.686962809867197 x[44] + 4.839993571581089 x[45]
   + 0.9333223015584369 x[46] + 2.178227756070919 x[47]
   + 3.049373895068269 x[48] + 3.294260745410985 x[49]
   + 3.583242024578347 x[50] + 1.647956486165099 x[51]
   + 3.741093169371004 x[52] + 4.588819298587481 x[53]
   + 0.2380495293743312 x[54] + 1.661471490659015 x[55]
   + 1.713055491429904 x[56] + 1.027581266555078 x[57]
   + 4.870038489787845 x[58] + 3.972421698700843 x[59]
   + 1.489048397612807 x[60] + 3.285055888787647 x[61]
   + 0.7893299415892057 x[62] + 4.196065939642058 x[63]
   + 1.604449379794383 x[64] + 2.307394483740559 x[65]
   + 4.5917711077429 x[66] + 2.794448793010298 x[67]
   + 0.8408615517952194 x[68] + 4.36002383238228 x[69]
   + 1.706587166241402 x[70] + 4.694638397627752 x[71]
   + 0.00982426278954162 x[72] + 1.25084118270416 x[73]
   + 5.043303331702612 x[74] + 3.765304729719452 x[75]
   + 2.430842033134254 x[76] + 3.095609684375431 x[77]
   + 2.740936872009053 x[78] + 4.303830443661386 x[79]
   + 3.67702110824469 x[80] + 0.8349430021265438 x[81]
   + 3.590951558950664 x[82] + 0.1632195071742858 x[83]
   + 0.450303471811783 x[84] + 3.766634076375562 x[85]
   + 4.338892903276967 x[86] + 2.807132530489205 x[87]
   + 3.932365136599439 x[88] + 2.262406274031667 x[89]
   + 1.451626826661169 x[90] + 2.186724830166494 x[91]
   + 2.499452121487312 x[92] + 2.521523154136216 x[93]
   + 0.8026721316468729 x[94] + 3.44345207913145 x[95]
   + 4.724378648268724 x[96] + 4.639250773607402 x[97]
   + 0.8848612694345459 x[98] + 4.727328648056909 x[99]
   + 3.34942021818843 x[100] + 1.162393921740418 x[101]
   + 2.250952774877915 x[102] + 4.739622001537479 x[103]
   + 2.452923744838481 x[104] + 3.623726569944299 x[105]
   + 0.8860462697093965 x[106] + 3.828203551891951 x[107]
   + 4.487344378560755 x[108] + 2.6600695333704 x[109] + 5 u[0] + 77 u[1]
   + 95 u[2] + 92 u[3] + u[4] + 27 u[5] + 90 u[6] + 13 u[7] + 6 u[8]
   + 35 u[9] + 25 u[10] + 68 u[11] + 53 u[12] + 89 u[13] + 6 u[14]
   + 74 u[15] + 54 u[16] + 5 u[17] + 10 u[18] + 47 u[19] + 90 u[20]
   + 9 u[21] + 5 u[22] + 16 u[23] + 70 u[24] + 85 u[25] + 39 u[26]
   + 45 u[27] + 47 u[28] + 52 u[29] + 7 u[30] + 69 u[31] + 57 u[32]
   + 86 u[33] + 17 u[34] + 74 u[35] + 89 u[36] + 10 u[37] + 77 u[38]
   + 24 u[39] + 60 u[40] + 91 u[41] + 99 u[42] + 43 u[43] + 20 u[44]
   + 24 u[45] + 71 u[46] + 91 u[47] + 8 u[48] + u[49] + 56 u[50] + 77 u[51]
   + 66 u[52] + 97 u[53] + 74 u[54] + 93 u[55] + 30 u[56] + 12 u[57]
   + 33 u[58] + 59 u[59] + 6 u[60] + 88 u[61] + 85 u[62] + 76 u[63]
   + 41 u[64] + 21 u[65] + 34 u[66] + 72 u[67] + 21 u[68] + 59 u[69]
   + 91 u[70] + 79 u[71] + 99 u[72] + 48 u[73] + 5 u[74] + 94 u[75]
   + 12 u[76] + 60 u[77] + 10 u[78] + 76 u[79] + 95 u[80] + 95 u[81]
   + 88 u[82] + 7 u[83] + 31 u[84] + 27 u[85] + 93 u[86] + 81 u[87]
   + 71 u[88] + 92 u[89] + 54 u[90] + 14 u[91] + 66 u[92] + 29 u[93]
   + 53 u[94] + 74 u[95] + 86 u[96] + 62 u[97] + 53 u[98] + 85 u[99]
   + 22 u[100] + 33 u[101] + 95 u[102] + 25 u[103] + 66 u[104] + 51 u[105]
   + 100 u[106] + 80 u[107] + 84 u[108] + 46 u[109] <= 49732
 mccormick1[0]: - u[0] + r[0] <= 0
 mccormick1[1]: - u[1] + r[1] <= 0
 mccormick1[2]: - u[2] + r[2] <= 0
 mccormick1[3]: - u[3] + r[3] <= 0
 mccormick1[4]: - u[4] + r[4] <= 0
 mccormick1[5]: - u[5] + r[5] <= 0
 mccormick1[6]: - u[6] + r[6] <= 0
 mccormick1[7]: - u[7] + r[7] <= 0
 mccormick1[8]: - u[8] + r[8] <= 0
 mccormick1[9]: - u[9] + r[9] <= 0
 mccormick1[10]: - u[10] + r[10] <= 0
 mccormick1[11]: - u[11] + r[11] <= 0
 mccormick1[12]: - u[12] + r[12] <= 0
 mccormick1[13]: - u[13] + r[13] <= 0
 mccormick1[14]: - u[14] + r[14] <= 0
 mccormick1[15]: - u[15] + r[15] <= 0
 mccormick1[16]: - u[16] + r[16] <= 0
 mccormick1[17]: - u[17] + r[17] <= 0
 mccormick1[18]: - u[18] + r[18] <= 0
 mccormick1[19]: - u[19] + r[19] <= 0
 mccormick1[20]: - u[20] + r[20] <= 0
 mccormick1[21]: - u[21] + r[21] <= 0
 mccormick1[22]: - u[22] + r[22] <= 0
 mccormick1[23]: - u[23] + r[23] <= 0
 mccormick1[24]: - u[24] + r[24] <= 0
 mccormick1[25]: - u[25] + r[25] <= 0
 mccormick1[26]: - u[26] + r[26] <= 0
 mccormick1[27]: - u[27] + r[27] <= 0
 mccormick1[28]: - u[28] + r[28] <= 0
 mccormick1[29]: - u[29] + r[29] <= 0
 mccormick1[30]: - u[30] + r[30] <= 0
 mccormick1[31]: - u[31] + r[31] <= 0
 mccormick1[32]: - u[32] + r[32] <= 0
 mccormick1[33]: - u[33] + r[33] <= 0
 mccormick1[34]: - u[34] + r[34] <= 0
 mccormick1[35]: - u[35] + r[35] <= 0
 mccormick1[36]: - u[36] + r[36] <= 0
 mccormick1[37]: - u[37] + r[37] <= 0
 mccormick1[38]: - u[38] + r[38] <= 0
 mccormick1[39]: - u[39] + r[39] <= 0
 mccormick1[40]: - u[40] + r[40] <= 0
 mccormick1[41]: - u[41] + r[41] <= 0
 mccormick1[42]: - u[42] + r[42] <= 0
 mccormick1[43]: - u[43] + r[43] <= 0
 mccormick1[44]: - u[44] + r[44] <= 0
 mccormick1[45]: - u[45] + r[45] <= 0
 mccormick1[46]: - u[46] + r[46] <= 0
 mccormick1[47]: - u[47] + r[47] <= 0
 mccormick1[48]: - u[48] + r[48] <= 0
 mccormick1[49]: - u[49] + r[49] <= 0
 mccormick1[50]: - u[50] + r[50] <= 0
 mccormick1[51]: - u[51] + r[51] <= 0
 mccormick1[52]: - u[52] + r[52] <= 0
 mccormick1[53]: - u[53] + r[53] <= 0
 mccormick1[54]: - u[54] + r[54] <= 0
 mccormick1[55]: - u[55] + r[55] <= 0
 mccormick1[56]: - u[56] + r[56] <= 0
 mccormick1[57]: - u[57] + r[57] <= 0
 mccormick1[58]: - u[58] + r[58] <= 0
 mccormick1[59]: - u[59] + r[59] <= 0
 mccormick1[60]: - u[60] + r[60] <= 0
 mccormick1[61]: - u[61] + r[61] <= 0
 mccormick1[62]: - u[62] + r[62] <= 0
 mccormick1[63]: - u[63] + r[63] <= 0
 mccormick1[64]: - u[64] + r[64] <= 0
 mccormick1[65]: - u[65] + r[65] <= 0
 mccormick1[66]: - u[66] + r[66] <= 0
 mccormick1[67]: - u[67] + r[67] <= 0
 mccormick1[68]: - u[68] + r[68] <= 0
 mccormick1[69]: - u[69] + r[69] <= 0
 mccormick1[70]: - u[70] + r[70] <= 0
 mccormick1[71]: - u[71] + r[71] <= 0
 mccormick1[72]: - u[72] + r[72] <= 0
 mccormick1[73]: - u[73] + r[73] <= 0
 mccormick1[74]: - u[74] + r[74] <= 0
 mccormick1[75]: - u[75] + r[75] <= 0
 mccormick1[76]: - u[76] + r[76] <= 0
 mccormick1[77]: - u[77] + r[77] <= 0
 mccormick1[78]: - u[78] + r[78] <= 0
 mccormick1[79]: - u[79] + r[79] <= 0
 mccormick1[80]: - u[80] + r[80] <= 0
 mccormick1[81]: - u[81] + r[81] <= 0
 mccormick1[82]: - u[82] + r[82] <= 0
 mccormick1[83]: - u[83] + r[83] <= 0
 mccormick1[84]: - u[84] + r[84] <= 0
 mccormick1[85]: - u[85] + r[85] <= 0
 mccormick1[86]: - u[86] + r[86] <= 0
 mccormick1[87]: - u[87] + r[87] <= 0
 mccormick1[88]: - u[88] + r[88] <= 0
 mccormick1[89]: - u[89] + r[89] <= 0
 mccormick1[90]: - u[90] + r[90] <= 0
 mccormick1[91]: - u[91] + r[91] <= 0
 mccormick1[92]: - u[92] + r[92] <= 0
 mccormick1[93]: - u[93] + r[93] <= 0
 mccormick1[94]: - u[94] + r[94] <= 0
 mccormick1[95]: - u[95] + r[95] <= 0
 mccormick1[96]: - u[96] + r[96] <= 0
 mccormick1[97]: - u[97] + r[97] <= 0
 mccormick1[98]: - u[98] + r[98] <= 0
 mccormick1[99]: - u[99] + r[99] <= 0
 mccormick1[100]: - u[100] + r[100] <= 0
 mccormick1[101]: - u[101] + r[101] <= 0
 mccormick1[102]: - u[102] + r[102] <= 0
 mccormick1[103]: - u[103] + r[103] <= 0
 mccormick1[104]: - u[104] + r[104] <= 0
 mccormick1[105]: - u[105] + r[105] <= 0
 mccormick1[106]: - u[106] + r[106] <= 0
 mccormick1[107]: - u[107] + r[107] <= 0
 mccormick1[108]: - u[108] + r[108] <= 0
 mccormick1[109]: - u[109] + r[109] <= 0
 mccormick2[0]: - x[0] + r[0] <= 0
 mccormick2[1]: - x[1] + r[1] <= 0
 mccormick2[2]: - x[2] + r[2] <= 0
 mccormick2[3]: - x[3] + r[3] <= 0
 mccormick2[4]: - x[4] + r[4] <= 0
 mccormick2[5]: - x[5] + r[5] <= 0
 mccormick2[6]: - x[6] + r[6] <= 0
 mccormick2[7]: - x[7] + r[7] <= 0
 mccormick2[8]: - x[8] + r[8] <= 0
 mccormick2[9]: - x[9] + r[9] <= 0
 mccormick2[10]: - x[10] + r[10] <= 0
 mccormick2[11]: - x[11] + r[11] <= 0
 mccormick2[12]: - x[12] + r[12] <= 0
 mccormick2[13]: - x[13] + r[13] <= 0
 mccormick2[14]: - x[14] + r[14] <= 0
 mccormick2[15]: - x[15] + r[15] <= 0
 mccormick2[16]: - x[16] + r[16] <= 0
 mccormick2[17]: - x[17] + r[17] <= 0
 mccormick2[18]: - x[18] + r[18] <= 0
 mccormick2[19]: - x[19] + r[19] <= 0
 mccormick2[20]: - x[20] + r[20] <= 0
 mccormick2[21]: - x[21] + r[21] <= 0
 mccormick2[22]: - x[22] + r[22] <= 0
 mccormick2[23]: - x[23] + r[23] <= 0
 mccormick2[24]: - x[24] + r[24] <= 0
 mccormick2[25]: - x[25] + r[25] <= 0
 mccormick2[26]: - x[26] + r[26] <= 0
 mccormick2[27]: - x[27] + r[27] <= 0
 mccormick2[28]: - x[28] + r[28] <= 0
 mccormick2[29]: - x[29] + r[29] <= 0
 mccormick2[30]: - x[30] + r[30] <= 0
 mccormick2[31]: - x[31] + r[31] <= 0
 mccormick2[32]: - x[32] + r[32] <= 0
 mccormick2[33]: - x[33] + r[33] <= 0
 mccormick2[34]: - x[34] + r[34] <= 0
 mccormick2[35]: - x[35] + r[35] <= 0
 mccormick2[36]: - x[36] + r[36] <= 0
 mccormick2[37]: - x[37] + r[37] <= 0
 mccormick2[38]: - x[38] + r[38] <= 0
 mccormick2[39]: - x[39] + r[39] <= 0
 mccormick2[40]: - x[40] + r[40] <= 0
 mccormick2[41]: - x[41] + r[41] <= 0
 mccormick2[42]: - x[42] + r[42] <= 0
 mccormick2[43]: - x[43] + r[43] <= 0
 mccormick2[44]: - x[44] + r[44] <= 0
 mccormick2[45]: - x[45] + r[45] <= 0
 mccormick2[46]: - x[46] + r[46] <= 0
 mccormick2[47]: - x[47] + r[47] <= 0
 mccormick2[48]: - x[48] + r[48] <= 0
 mccormick2[49]: - x[49] + r[49] <= 0
 mccormick2[50]: - x[50] + r[50] <= 0
 mccormick2[51]: - x[51] + r[51] <= 0
 mccormick2[52]: - x[52] + r[52] <= 0
 mccormick2[53]: - x[53] + r[53] <= 0
 mccormick2[54]: - x[54] + r[54] <= 0
 mccormick2[55]: - x[55] + r[55] <= 0
 mccormick2[56]: - x[56] + r[56] <= 0
 mccormick2[57]: - x[57] + r[57] <= 0
 mccormick2[58]: - x[58] + r[58] <= 0
 mccormick2[59]: - x[59] + r[59] <= 0
 mccormick2[60]: - x[60] + r[60] <= 0
 mccormick2[61]: - x[61] + r[61] <= 0
 mccormick2[62]: - x[62] + r[62] <= 0
 mccormick2[63]: - x[63] + r[63] <= 0
 mccormick2[64]: - x[64] + r[64] <= 0
 mccormick2[65]: - x[65] + r[65] <= 0
 mccormick2[66]: - x[66] + r[66] <= 0
 mccormick2[67]: - x[67] + r[67] <= 0
 mccormick2[68]: - x[68] + r[68] <= 0
 mccormick2[69]: - x[69] + r[69] <= 0
 mccormick2[70]: - x[70] + r[70] <= 0
 mccormick2[71]: - x[71] + r[71] <= 0
 mccormick2[72]: - x[72] + r[72] <= 0
 mccormick2[73]: - x[73] + r[73] <= 0
 mccormick2[74]: - x[74] + r[74] <= 0
 mccormick2[75]: - x[75] + r[75] <= 0
 mccormick2[76]: - x[76] + r[76] <= 0
 mccormick2[77]: - x[77] + r[77] <= 0
 mccormick2[78]: - x[78] + r[78] <= 0
 mccormick2[79]: - x[79] + r[79] <= 0
 mccormick2[80]: - x[80] + r[80] <= 0
 mccormick2[81]: - x[81] + r[81] <= 0
 mccormick2[82]: - x[82] + r[82] <= 0
 mccormick2[83]: - x[83] + r[83] <= 0
 mccormick2[84]: - x[84] + r[84] <= 0
 mccormick2[85]: - x[85] + r[85] <= 0
 mccormick2[86]: - x[86] + r[86] <= 0
 mccormick2[87]: - x[87] + r[87] <= 0
 mccormick2[88]: - x[88] + r[88] <= 0
 mccormick2[89]: - x[89] + r[89] <= 0
 mccormick2[90]: - x[90] + r[90] <= 0
 mccormick2[91]: - x[91] + r[91] <= 0
 mccormick2[92]: - x[92] + r[92] <= 0
 mccormick2[93]: - x[93] + r[93] <= 0
 mccormick2[94]: - x[94] + r[94] <= 0
 mccormick2[95]: - x[95] + r[95] <= 0
 mccormick2[96]: - x[96] + r[96] <= 0
 mccormick2[97]: - x[97] + r[97] <= 0
 mccormick2[98]: - x[98] + r[98] <= 0
 mccormick2[99]: - x[99] + r[99] <= 0
 mccormick2[100]: - x[100] + r[100] <= 0
 mccormick2[101]: - x[101] + r[101] <= 0
 mccormick2[102]: - x[102] + r[102] <= 0
 mccormick2[103]: - x[103] + r[103] <= 0
 mccormick2[104]: - x[104] + r[104] <= 0
 mccormick2[105]: - x[105] + r[105] <= 0
 mccormick2[106]: - x[106] + r[106] <= 0
 mccormick2[107]: - x[107] + r[107] <= 0
 mccormick2[108]: - x[108] + r[108] <= 0
 mccormick2[109]: - x[109] + r[109] <= 0
 mccormick3[0]: x[0] + u[0] - r[0] <= 1
 mccormick3[1]: x[1] + u[1] - r[1] <= 1
 mccormick3[2]: x[2] + u[2] - r[2] <= 1
 mccormick3[3]: x[3] + u[3] - r[3] <= 1
 mccormick3[4]: x[4] + u[4] - r[4] <= 1
 mccormick3[5]: x[5] + u[5] - r[5] <= 1
 mccormick3[6]: x[6] + u[6] - r[6] <= 1
 mccormick3[7]: x[7] + u[7] - r[7] <= 1
 mccormick3[8]: x[8] + u[8] - r[8] <= 1
 mccormick3[9]: x[9] + u[9] - r[9] <= 1
 mccormick3[10]: x[10] + u[10] - r[10] <= 1
 mccormick3[11]: x[11] + u[11] - r[11] <= 1
 mccormick3[12]: x[12] + u[12] - r[12] <= 1
 mccormick3[13]: x[13] + u[13] - r[13] <= 1
 mccormick3[14]: x[14] + u[14] - r[14] <= 1
 mccormick3[15]: x[15] + u[15] - r[15] <= 1
 mccormick3[16]: x[16] + u[16] - r[16] <= 1
 mccormick3[17]: x[17] + u[17] - r[17] <= 1
 mccormick3[18]: x[18] + u[18] - r[18] <= 1
 mccormick3[19]: x[19] + u[19] - r[19] <= 1
 mccormick3[20]: x[20] + u[20] - r[20] <= 1
 mccormick3[21]: x[21] + u[21] - r[21] <= 1
 mccormick3[22]: x[22] + u[22] - r[22] <= 1
 mccormick3[23]: x[23] + u[23] - r[23] <= 1
 mccormick3[24]: x[24] + u[24] - r[24] <= 1
 mccormick3[25]: x[25] + u[25] - r[25] <= 1
 mccormick3[26]: x[26] + u[26] - r[26] <= 1
 mccormick3[27]: x[27] + u[27] - r[27] <= 1
 mccormick3[28]: x[28] + u[28] - r[28] <= 1
 mccormick3[29]: x[29] + u[29] - r[29] <= 1
 mccormick3[30]: x[30] + u[30] - r[30] <= 1
 mccormick3[31]: x[31] + u[31] - r[31] <= 1
 mccormick3[32]: x[32] + u[32] - r[32] <= 1
 mccormick3[33]: x[33] + u[33] - r[33] <= 1
 mccormick3[34]: x[34] + u[34] - r[34] <= 1
 mccormick3[35]: x[35] + u[35] - r[35] <= 1
 mccormick3[36]: x[36] + u[36] - r[36] <= 1
 mccormick3[37]: x[37] + u[37] - r[37] <= 1
 mccormick3[38]: x[38] + u[38] - r[38] <= 1
 mccormick3[39]: x[39] + u[39] - r[39] <= 1
 mccormick3[40]: x[40] + u[40] - r[40] <= 1
 mccormick3[41]: x[41] + u[41] - r[41] <= 1
 mccormick3[42]: x[42] + u[42] - r[42] <= 1
 mccormick3[43]: x[43] + u[43] - r[43] <= 1
 mccormick3[44]: x[44] + u[44] - r[44] <= 1
 mccormick3[45]: x[45] + u[45] - r[45] <= 1
 mccormick3[46]: x[46] + u[46] - r[46] <= 1
 mccormick3[47]: x[47] + u[47] - r[47] <= 1
 mccormick3[48]: x[48] + u[48] - r[48] <= 1
 mccormick3[49]: x[49] + u[49] - r[49] <= 1
 mccormick3[50]: x[50] + u[50] - r[50] <= 1
 mccormick3[51]: x[51] + u[51] - r[51] <= 1
 mccormick3[52]: x[52] + u[52] - r[52] <= 1
 mccormick3[53]: x[53] + u[53] - r[53] <= 1
 mccormick3[54]: x[54] + u[54] - r[54] <= 1
 mccormick3[55]: x[55] + u[55] - r[55] <= 1
 mccormick3[56]: x[56] + u[56] - r[56] <= 1
 mccormick3[57]: x[57] + u[57] - r[57] <= 1
 mccormick3[58]: x[58] + u[58] - r[58] <= 1
 mccormick3[59]: x[59] + u[59] - r[59] <= 1
 mccormick3[60]: x[60] + u[60] - r[60] <= 1
 mccormick3[61]: x[61] + u[61] - r[61] <= 1
 mccormick3[62]: x[62] + u[62] - r[62] <= 1
 mccormick3[63]: x[63] + u[63] - r[63] <= 1
 mccormick3[64]: x[64] + u[64] - r[64] <= 1
 mccormick3[65]: x[65] + u[65] - r[65] <= 1
 mccormick3[66]: x[66] + u[66] - r[66] <= 1
 mccormick3[67]: x[67] + u[67] - r[67] <= 1
 mccormick3[68]: x[68] + u[68] - r[68] <= 1
 mccormick3[69]: x[69] + u[69] - r[69] <= 1
 mccormick3[70]: x[70] + u[70] - r[70] <= 1
 mccormick3[71]: x[71] + u[71] - r[71] <= 1
 mccormick3[72]: x[72] + u[72] - r[72] <= 1
 mccormick3[73]: x[73] + u[73] - r[73] <= 1
 mccormick3[74]: x[74] + u[74] - r[74] <= 1
 mccormick3[75]: x[75] + u[75] - r[75] <= 1
 mccormick3[76]: x[76] + u[76] - r[76] <= 1
 mccormick3[77]: x[77] + u[77] - r[77] <= 1
 mccormick3[78]: x[78] + u[78] - r[78] <= 1
 mccormick3[79]: x[79] + u[79] - r[79] <= 1
 mccormick3[80]: x[80] + u[80] - r[80] <= 1
 mccormick3[81]: x[81] + u[81] - r[81] <= 1
 mccormick3[82]: x[82] + u[82] - r[82] <= 1
 mccormick3[83]: x[83] + u[83] - r[83] <= 1
 mccormick3[84]: x[84] + u[84] - r[84] <= 1
 mccormick3[85]: x[85] + u[85] - r[85] <= 1
 mccormick3[86]: x[86] + u[86] - r[86] <= 1
 mccormick3[87]: x[87] + u[87] - r[87] <= 1
 mccormick3[88]: x[88] + u[88] - r[88] <= 1
 mccormick3[89]: x[89] + u[89] - r[89] <= 1
 mccormick3[90]: x[90] + u[90] - r[90] <= 1
 mccormick3[91]: x[91] + u[91] - r[91] <= 1
 mccormick3[92]: x[92] + u[92] - r[92] <= 1
 mccormick3[93]: x[93] + u[93] - r[93] <= 1
 mccormick3[94]: x[94] + u[94] - r[94] <= 1
 mccormick3[95]: x[95] + u[95] - r[95] <= 1
 mccormick3[96]: x[96] + u[96] - r[96] <= 1
 mccormick3[97]: x[97] + u[97] - r[97] <= 1
 mccormick3[98]: x[98] + u[98] - r[98] <= 1
 mccormick3[99]: x[99] + u[99] - r[99] <= 1
 mccormick3[100]: x[100] + u[100] - r[100] <= 1
 mccormick3[101]: x[101] + u[101] - r[101] <= 1
 mccormick3[102]: x[102] + u[102] - r[102] <= 1
 mccormick3[103]: x[103] + u[103] - r[103] <= 1
 mccormick3[104]: x[104] + u[104] - r[104] <= 1
 mccormick3[105]: x[105] + u[105] - r[105] <= 1
 mccormick3[106]: x[106] + u[106] - r[106] <= 1
 mccormick3[107]: x[107] + u[107] - r[107] <= 1
 mccormick3[108]: x[108] + u[108] - r[108] <= 1
 mccormick3[109]: x[109] + u[109] - r[109] <= 1
Bounds
Binaries
 x[0] x[1] x[2] x[3] x[4] x[5] x[6] x[7] x[8] x[9] x[10] x[11] x[12] x[13]
 x[14] x[15] x[16] x[17] x[18] x[19] x[20] x[21] x[22] x[23] x[24] x[25]
 x[26] x[27] x[28] x[29] x[30] x[31] x[32] x[33] x[34] x[35] x[36] x[37]
 x[38] x[39] x[40] x[41] x[42] x[43] x[44] x[45] x[46] x[47] x[48] x[49]
 x[50] x[51] x[52] x[53] x[54] x[55] x[56] x[57] x[58] x[59] x[60] x[61]
 x[62] x[63] x[64] x[65] x[66] x[67] x[68] x[69] x[70] x[71] x[72] x[73]
 x[74] x[75] x[76] x[77] x[78] x[79] x[80] x[81] x[82] x[83] x[84] x[85]
 x[86] x[87] x[88] x[89] x[90] x[91] x[92] x[93] x[94] x[95] x[96] x[97]
 x[98] x[99] x[100] x[101] x[102] x[103] x[104] x[105] x[106] x[107] x[108]
 x[109] u[0] u[1] u[2] u[3] u[4] u[5] u[6] u[7] u[8] u[9] u[10] u[11] u[12]
 u[13] u[14] u[15] u[16] u[17] u[18] u[19] u[20] u[21] u[22] u[23] u[24]
 u[25] u[26] u[27] u[28] u[29] u[30] u[31] u[32] u[33] u[34] u[35] u[36]
 u[37] u[38] u[39] u[40] u[41] u[42] u[43] u[44] u[45] u[46] u[47] u[48]
 u[49] u[50] u[51] u[52] u[53] u[54] u[55] u[56] u[57] u[58] u[59] u[60]
 u[61] u[62] u[63] u[64] u[65] u[66] u[67] u[68] u[69] u[70] u[71] u[72]
 u[73] u[74] u[75] u[76] u[77] u[78] u[79] u[80] u[81] u[82] u[83] u[84]
 u[85] u[86] u[87] u[88] u[89] u[90] u[91] u[92] u[93] u[94] u[95] u[96]
 u[97] u[98] u[99] u[100] u[101] u[102] u[103] u[104] u[105] u[106] u[107]
 u[108] u[109] r[0] r[1] r[2] r[3] r[4] r[5] r[6] r[7] r[8] r[9] r[10]
 r[11] r[12] r[13] r[14] r[15] r[16] r[17] r[18] r[19] r[20] r[21] r[22]
 r[23] r[24] r[25] r[26] r[27] r[28] r[29] r[30] r[31] r[32] r[33] r[34]
 r[35] r[36] r[37] r[38] r[39] r[40] r[41] r[42] r[43] r[44] r[45] r[46]
 r[47] r[48] r[49] r[50] r[51] r[52] r[53] r[54] r[55] r[56] r[57] r[58]
 r[59] r[60] r[61] r[62] r[63] r[64] r[65] r[66] r[67] r[68] r[69] r[70]
 r[71] r[72] r[73] r[74] r[75] r[76] r[77] r[78] r[79] r[80] r[81] r[82]
 r[83] r[84] r[85] r[86] r[87] r[88] r[89] r[90] r[91] r[92] r[93] r[94]
 r[95] r[96] r[97] r[98] r[99] r[100] r[101] r[102] r[103] r[104] r[105]
 r[106] r[107] r[108] r[109]
End
