instances/knapsack/discrete/knapsack_110_2.kp
12252
110
533

25 2.5 31
9 0.9 36
99 9.9 77
4 0.4 29
41 4.1 35
99 9.9 54
6 0.6 7
49 4.9 93
62 6.2 84
75 7.5 4
9 0.9 80
32 3.2 68
97 9.7 80
5 0.5 51
82 8.2 60
46 4.6 9
18 1.8 99
73 7.3 11
90 9.0 92
11 1.1 83
10 1.0 47
45 4.5 4
77 7.7 93
36 3.6 81
42 4.2 86
97 9.7 28
55 5.5 49
69 6.9 65
95 9.5 87
72 7.2 50
15 1.5 14
81 8.1 37
1 0.1 97
86 8.6 40
65 6.5 25
38 3.8 90
1 0.1 6
86 8.6 64
93 9.3 88
88 8.8 49
100 10.0 57
27 2.7 3
67 6.7 63
47 4.7 32
28 2.8 4
44 4.4 24
47 4.7 50
83 8.3 86
4 0.4 26
73 7.3 43
52 5.2 36
49 4.9 52
46 4.6 8
89 8.9 78
90 9.0 81
25 2.5 67
10 1.0 100
4 0.4 17
29 2.9 53
91 9.1 88
34 3.4 85
88 8.8 31
97 9.7 19
60 6.0 91
45 4.5 28
85 8.5 2
66 6.6 2
32 3.2 75
53 5.3 30
79 7.9 87
63 6.3 2
31 3.1 4
11 1.1 2
32 3.2 83
89 8.9 88
18 1.8 67
40 4.0 35
48 4.8 14
98 9.8 57
56 5.6 49
19 1.9 100
75 7.5 11
56 5.6 7
71 7.1 15
75 7.5 10
75 7.5 54
1 0.1 71
33 3.3 32
67 6.7 21
24 2.4 88
38 3.8 91
18 1.8 83
18 1.8 3
49 4.9 46
21 2.1 53
46 4.6 28
66 6.6 34
34 3.4 73
89 8.9 30
37 3.7 30
30 3.0 98
29 2.9 7
91 9.1 16
49 4.9 67
70 7.0 88
3 0.3 76
52 5.2 67
60 6.0 86
20 2.0 15
74 7.4 30

49732
560

[1.6933213659802375 1.2105210562368813 3.893836388261791 3.621441797027456 2.6121745497440174 1.3862807032082902 0.5481642717704143 3.282851481241203 2.6528714616275333 0.3311876669353755 2.925075580089054 1.8732702492482773 0.6151191179083952 3.7205164054341995 3.2131339615504753 3.2763519911607535 3.262677563734956 2.03641325895212 0.577156302003325 4.581331492331063 4.4925350461206195 1.065313262084203 0.3674675050879555 3.8001530446159406 0.829843237489417 4.845794274772615 3.0119478461873124 3.5766242077634236 0.8198765471426908 2.7485139612882623 1.226451285789115 2.552762520458283 2.416918710371299 3.475333720913341 2.9764139601523585 0.8359200846659969 4.839245319026277 0.012091722941622458 3.0885048940388335 1.1476102381641466 2.0623432252559066 4.631910351750376 1.2874322995244405 0.5507905131643612 2.6869628098671967 4.839993571581089 0.9333223015584369 2.178227756070919 3.0493738950682694 3.294260745410985 3.583242024578347 1.647956486165099 3.7410931693710037 4.588819298587481 0.23804952937433121 1.6614714906590153 1.7130554914299043 1.0275812665550783 4.870038489787845 3.9724216987008427 1.489048397612807 3.285055888787647 0.7893299415892057 4.196065939642058 1.6044493797943833 2.3073944837405587 4.5917711077429 2.7944487930102984 0.8408615517952194 4.36002383238228 1.7065871662414025 4.694638397627752 0.009824262789541616 1.2508411827041601 5.043303331702612 3.7653047297194515 2.430842033134254 3.095609684375431 2.7409368720090526 4.303830443661386 3.6770211082446904 0.8349430021265438 3.590951558950664 0.1632195071742858 0.450303471811783 3.7666340763755617 4.338892903276967 2.807132530489205 3.932365136599439 2.2624062740316675 1.4516268266611694 2.186724830166494 2.4994521214873116 2.521523154136216 0.8026721316468729 3.4434520791314496 4.724378648268724 4.639250773607402 0.8848612694345459 4.7273286480569086 3.3494202181884303 1.162393921740418 2.2509527748779155 4.739622001537479 2.4529237448384813 3.6237265699442993 0.8860462697093965 3.8282035518919515 4.4873443785607545 2.6600695333704003]

[5 77 95 92 1 27 90 13 6 35 25 68 53 89 6 74 54 5 10 47 90 9 5 16 70 85 39 45 47 52 7 69 57 86 17 74 89 10 77 24 60 91 99 43 20 24 71 91 8 1 56 77 66 97 74 93 30 12 33 59 6 88 85 76 41 21 34 72 21 59 91 79 99 48 5 94 12 60 10 76 95 95 88 7 31 27 93 81 71 92 54 14 66 29 53 74 86 62 53 85 22 33 95 25 66 51 100 80 84 46]
